certificates/rado_a15_c198_N36.cnf
c Rad2 upper bound instance: x1 + 15*x2 - x3 = 198, interval [1,36]
p cnf 36 174
1 13 14 0
-1 -13 -14 0
1 15 28 0
-1 -15 -28 0
2 14 0
-2 -14 0
2 15 29 0
-2 -15 -29 0
3 14 15 0
-3 -14 -15 0
3 15 30 0
-3 -15 -30 0
1 4 13 0
-1 -4 -13 0
4 14 16 0
-4 -14 -16 0
4 15 31 0
-4 -15 -31 0
2 5 13 0
-2 -5 -13 0
5 14 17 0
-5 -14 -17 0
5 15 32 0
-5 -15 -32 0
3 6 13 0
-3 -6 -13 0
6 14 18 0
-6 -14 -18 0
6 15 33 0
-6 -15 -33 0
4 7 13 0
-4 -7 -13 0
7 14 19 0
-7 -14 -19 0
7 15 34 0
-7 -15 -34 0
5 8 13 0
-5 -8 -13 0
8 14 20 0
-8 -14 -20 0
8 15 35 0
-8 -15 -35 0
6 9 13 0
-6 -9 -13 0
9 14 21 0
-9 -14 -21 0
9 15 36 0
-9 -15 -36 0
7 10 13 0
-7 -10 -13 0
10 14 22 0
-10 -14 -22 0
8 11 13 0
-8 -11 -13 0
11 14 23 0
-11 -14 -23 0
9 12 13 0
-9 -12 -13 0
12 14 24 0
-12 -14 -24 0
10 13 0
-10 -13 0
13 14 25 0
-13 -14 -25 0
11 13 14 0
-11 -13 -14 0
14 26 0
-14 -26 0
12 13 15 0
-12 -13 -15 0
14 15 27 0
-14 -15 -27 0
13 16 0
-13 -16 0
14 16 28 0
-14 -16 -28 0
13 14 17 0
-13 -14 -17 0
14 17 29 0
-14 -17 -29 0
13 15 18 0
-13 -15 -18 0
14 18 30 0
-14 -18 -30 0
1 12 19 0
-1 -12 -19 0
13 16 19 0
-13 -16 -19 0
14 19 31 0
-14 -19 -31 0
2 12 20 0
-2 -12 -20 0
13 17 20 0
-13 -17 -20 0
14 20 32 0
-14 -20 -32 0
3 12 21 0
-3 -12 -21 0
13 18 21 0
-13 -18 -21 0
14 21 33 0
-14 -21 -33 0
4 12 22 0
-4 -12 -22 0
13 19 22 0
-13 -19 -22 0
14 22 34 0
-14 -22 -34 0
5 12 23 0
-5 -12 -23 0
13 20 23 0
-13 -20 -23 0
14 23 35 0
-14 -23 -35 0
6 12 24 0
-6 -12 -24 0
13 21 24 0
-13 -21 -24 0
14 24 36 0
-14 -24 -36 0
7 12 25 0
-7 -12 -25 0
13 22 25 0
-13 -22 -25 0
8 12 26 0
-8 -12 -26 0
13 23 26 0
-13 -23 -26 0
9 12 27 0
-9 -12 -27 0
13 24 27 0
-13 -24 -27 0
10 12 28 0
-10 -12 -28 0
13 25 28 0
-13 -25 -28 0
11 12 29 0
-11 -12 -29 0
13 26 29 0
-13 -26 -29 0
12 30 0
-12 -30 0
13 27 30 0
-13 -27 -30 0
12 13 31 0
-12 -13 -31 0
13 28 31 0
-13 -28 -31 0
12 14 32 0
-12 -14 -32 0
13 29 32 0
-13 -29 -32 0
12 15 33 0
-12 -15 -33 0
13 30 33 0
-13 -30 -33 0
1 11 34 0
-1 -11 -34 0
12 16 34 0
-12 -16 -34 0
13 31 34 0
-13 -31 -34 0
2 11 35 0
-2 -11 -35 0
12 17 35 0
-12 -17 -35 0
13 32 35 0
-13 -32 -35 0
3 11 36 0
-3 -11 -36 0
12 18 36 0
-12 -18 -36 0
13 33 36 0
-13 -33 -36 0
