certificates/rado_a15_c198_N36.drat
13 -34 -36 0
-15 -13 -34 0
-34 -36 0
d 13 -34 -36 0
-13 15 34 0
15 -36 0
13 8 -36 0
-13 -36 0
-15 -36 0
d -9 -15 -36 0
-36 0
13 -15 0
-15 0
9 0
-13 0
10 0
16 0
33 0
18 0
12 0
-27 0
-28 0
-30 0
-34 0
0
